\ Model QCP
\ LP format - for model browsing. Use MPS format to capture full model detail.
Minimize
  z + y
Subject To
 Cut_0: z + [ ] >= 1080
 Cut_1: z + [ 1.071428571428571 y ^2 ] >= 1212.857142857143
 Cut_2: z + [ 1.071428571428571 y ^2 ] >= 1212.857142857143
 Cut_3: z + [ 1.071428571428571 y ^2 ] >= 1212.857142857143
 Cut_4: z + [ 1.071428571428571 y ^2 ] >= 1212.857142857143
 Cut_5: z + [ 1.071428571428571 y ^2 ] >= 1212.857142857143
 Cut_6: z + [ 1.071428571428571 y ^2 ] >= 1212.857142857143
 Cut_7: z + [ 1.071428571428571 y ^2 ] >= 1212.857142857143
 Cut_8: z + [ 1.071428571428571 y ^2 ] >= 1212.857142857143
 Cut_9: z + [ 1.071428571428571 y ^2 ] >= 1212.857142857143
Bounds
 z = 1080
 y = 11.13552872566004
End
